Route #1: 92 62 76 23 99
Route #2: 91 84 85 63 89 51 64
Route #3: 24 18 48 21 25 77 58
Route #4: 69 44 38 67 0 87 59 97 75 74 0 80 56 95 94 96 81 0 41 39 40 43 42 61
Route #5: 11 15 79 53 0 7 8 46 45 5 3 1
Route #6: 36 35 37 72 54 0 90 98 88 55 70 68 0 6 4 2 100 0 20 49 19 22
Route #7: 9 13 16 17 47 12 0 66 83 57 86 52 65
Route #8: 29 27 26 28 30 32 33 0 50 34 31 71 93 0 60 78 73 14 10 82
Cost: 17494
Optimal: True
